148
100
20
34
6
4
1
3
21
39
8
20
3
4
26
11
1
25
28
27
43
50
22
37
8
4
28
5
7
4
10
26
39
12
29
11
25
28
24
21
4
5
5
38
2
26
4
48
14
45
3
42
6
2
20
31
31
11
31
13
5
42
24
13
6
36
7
37
1
23
16
7
26
25
29
7
1
4
4
5
22
48
12
33
19
48
43
19
28
28
17
49
29
9
41
4
13
12
43
4
1
48
3
26
14
34
30
7
3
1
27
7
14
29
17
23
23
36
24
40
41
4
30
14
6
36
3
32
2
7
29
27
32
27
45
26
46
1
1
39
19
1
32
13
23
40
33
21
14
15
